p cnf 22 11
e 1 0
a 2 0
e 3 0
a 4 0
e 5 0
a 6 0
e 7 0
a 8 0
e 9 0
a 10 0
e 11 12 0
a 13 14 15 0
e 16 0
a 17 0
e 18 19 0
a 20 21 0
e 22 0
16 6 12 -18 0
18 21 0
-22 4 -7 21 0
-2 14 15 1 0
-1 -9 5 -14 -7 0
13 14 -21 0
-16 -11 21 0
-20 1 -7 6 0
17 -6 8 -15 0
21 20 -22 0
-3 -20 -7 -14 -17 0
